Optimal - objective value 14.00000000
      1 x_0_3                   1                       3
      3 x_0_8                   1                       2
      9 x_1_4                   1                       2
     10 x_1_7                   1                       1
     17 x_3_7                   1                       1
     40 x_8_19                  1                       2
     47 x_9_19                  1                       3
     66 f_0_3                   3                       0
     67 f_3_0                   1                       0
     70 f_0_8                   3                       0
     71 f_8_0                   1                       0
     82 f_1_4                 2.5                       0
     83 f_4_1                 1.5                       0
     84 f_1_7                   1                       0
     85 f_7_1                   3                       0
     98 f_3_7                   2                       0
    144 f_8_19                2.5                       0
    145 f_19_8                1.5                       0
    158 f_9_19                1.5                       0
    159 f_19_9                2.5                       0
